NAME : portcgen-23-5
COMMENT : portcgen N=23, seed=5
TYPE : TSP
DIMENSION : 23
EDGE_WEIGHT_TYPE : EUC_2D
NODE_COORD_SECTION
1 151985 17349
2 64476 -16516
3 30726 46476
4 -224849 292076
5 -238793 31431
6 19195 -37424
7 141912 181235
8 192627 205820
9 34073 -222560
10 213412 9456
11 22701 -151947
12 120855 187593
13 -99929 346803
14 -48765 168335
15 -70713 77055
16 397000 263001
17 -210723 190021
18 -88074 347965
19 295078 41167
20 72883 64517
21 -80450 170718
22 44193 -21918
23 97244 252511
